\ENCODING=ISO-8859-1
\Problem name: TSP

Minimize
 obj1: 2045.2 y_0,1_#0 + 2038.4 y_0,2_#1 + 2167.4 y_0,3_#2 + 2290.1 y_0,4_#3
       + 2259.9 y_0,5_#4 + 2335.5 y_0,6_#5 + 2266.5 y_0,7_#6 + 2191.6 y_0,8_#7
       + 2218.8 y_0,9_#8 + 2182.3 y_0,10_#9 + 2136.2 y_0,11_#10
       + 2122.5 y_0,12_#11 + 2191.9 y_0,13_#12 + 2160.5 y_0,14_#13
       + 2149 y_0,15_#14 + 2169.1 y_0,16_#15 + 2059.2 y_0,17_#16
       + 61.9 y_1,2_#17 + 310.6 y_1,3_#18 + 420.3 y_1,4_#19 + 407.5 y_1,5_#20
       + 539.9 y_1,6_#21 + 403.6 y_1,7_#22 + 304.2 y_1,8_#23 + 248.5 y_1,9_#24
       + 211.8 y_1,10_#25 + 165.9 y_1,11_#26 + 170.2 y_1,12_#27
       + 238.3 y_1,13_#28 + 208.2 y_1,14_#29 + 229.8 y_1,15_#30
       + 245.7 y_1,16_#31 + 156.4 y_1,17_#32 + 2137.1 y_1,18_#33
       + 60.6 y_2,1_#34 + 66 y_2,3_#35 + 253.3 y_2,4_#36 + 229.6 y_2,5_#37
       + 312.7 y_2,6_#38 + 224 y_2,7_#39 + 166.5 y_2,8_#40 + 138.7 y_2,9_#41
       + 144.3 y_2,10_#42 + 98.2 y_2,11_#43 + 62.9 y_2,12_#44
       + 116.5 y_2,13_#45 + 84.5 y_2,14_#46 + 37.4 y_2,15_#47 + 48.7 y_2,16_#48
       + 93.4 y_2,17_#49 + 2074.1 y_2,18_#50 + 323 y_3,1_#51 + 86.5 y_3,2_#52
       + 285.7 y_3,4_#53 + 262 y_3,5_#54 + 346.7 y_3,6_#55 + 323.9 y_3,7_#56
       + 288.5 y_3,8_#57 + 242.7 y_3,9_#58 + 268.2 y_3,10_#59
       + 296.1 y_3,11_#60 + 246.3 y_3,12_#61 + 289.8 y_3,13_#62
       + 257.8 y_3,14_#63 + 210.7 y_3,15_#64 + 191.7 y_3,16_#65
       + 324.7 y_3,17_#66 + 2173.8 y_3,18_#67 + 389.3 y_4,1_#68
       + 260.9 y_4,2_#69 + 368.6 y_4,3_#70 + 54.6 y_4,5_#71 + 177.4 y_4,6_#72
       + 76 y_4,7_#73 + 89.1 y_4,8_#74 + 215 y_4,9_#75 + 240.5 y_4,10_#76
       + 317.1 y_4,11_#77 + 308.2 y_4,12_#78 + 292.4 y_4,13_#79
       + 260.4 y_4,14_#80 + 210.5 y_4,15_#81 + 229.8 y_4,16_#82
       + 334.9 y_4,17_#83 + 2218.8 y_4,18_#84 + 396.9 y_5,1_#85
       + 268.5 y_5,2_#86 + 315.2 y_5,3_#87 + 54.6 y_5,4_#88 + 84.2 y_5,6_#89
       + 63.4 y_5,7_#90 + 96.7 y_5,8_#91 + 222.6 y_5,9_#92 + 248.1 y_5,10_#93
       + 324.7 y_5,11_#94 + 315.8 y_5,12_#95 + 300 y_5,13_#96 + 268 y_5,14_#97
       + 218.1 y_5,15_#98 + 237.4 y_5,16_#99 + 342.5 y_5,17_#100
       + 2190.7 y_5,18_#101 + 441.6 y_6,1_#102 + 244.7 y_6,2_#103
       + 277.6 y_6,3_#104 + 90.1 y_6,4_#105 + 54.9 y_6,5_#106
       + 128.3 y_6,7_#107 + 141.4 y_6,8_#108 + 277.1 y_6,9_#109
       + 302.6 y_6,10_#110 + 369.4 y_6,11_#111 + 360.5 y_6,12_#112
       + 344.7 y_6,13_#113 + 312.7 y_6,14_#114 + 262.8 y_6,15_#115
       + 282.1 y_6,16_#116 + 424.3 y_6,17_#117 + 2262.2 y_6,18_#118
       + 375.4 y_7,1_#119 + 247 y_7,2_#120 + 354.7 y_7,3_#121 + 95.5 y_7,4_#122
       + 65.1 y_7,5_#123 + 158.2 y_7,6_#124 + 13 y_7,8_#125 + 201.1 y_7,9_#126
       + 226.6 y_7,10_#127 + 303.2 y_7,11_#128 + 294.3 y_7,12_#129
       + 278.5 y_7,13_#130 + 246.5 y_7,14_#131 + 196.6 y_7,15_#132
       + 215.9 y_7,16_#133 + 321 y_7,17_#134 + 2182.8 y_7,18_#135
       + 300.1 y_8,1_#136 + 186.3 y_8,2_#137 + 294 y_8,3_#138 + 95.8 y_8,4_#139
       + 83 y_8,5_#140 + 215.4 y_8,6_#141 + 13 y_8,7_#142 + 140.4 y_8,9_#143
       + 165.9 y_8,10_#144 + 227.9 y_8,11_#145 + 233.6 y_8,12_#146
       + 217.8 y_8,13_#147 + 185.8 y_8,14_#148 + 135.9 y_8,15_#149
       + 155.2 y_8,16_#150 + 245.7 y_8,17_#151 + 2149.8 y_8,18_#152
       + 254 y_9,1_#153 + 153.9 y_9,2_#154 + 243.6 y_9,3_#155
       + 276.6 y_9,4_#156 + 207.7 y_9,5_#157 + 337.6 y_9,6_#158
       + 173.3 y_9,7_#159 + 115.8 y_9,8_#160 + 82.4 y_9,10_#161
       + 163.7 y_9,11_#162 + 160.4 y_9,12_#163 + 143.4 y_9,13_#164
       + 153.4 y_9,14_#165 + 103.5 y_9,15_#166 + 122.8 y_9,16_#167
       + 204.1 y_9,17_#168 + 2238.4 y_9,18_#169 + 186.3 y_10,1_#170
       + 111.8 y_10,2_#171 + 286.1 y_10,3_#172 + 319.1 y_10,4_#173
       + 250.2 y_10,5_#174 + 380.1 y_10,6_#175 + 215.8 y_10,7_#176
       + 158.3 y_10,8_#177 + 74.1 y_10,9_#178 + 24.9 y_10,11_#179
       + 53.9 y_10,12_#180 + 28.3 y_10,13_#181 + 72.4 y_10,14_#182
       + 132 y_10,15_#183 + 151.3 y_10,16_#184 + 136.4 y_10,17_#185
       + 2170.7 y_10,18_#186 + 163.7 y_11,1_#187 + 83.7 y_11,2_#188
       + 291.9 y_11,3_#189 + 398.8 y_11,4_#190 + 329.9 y_11,5_#191
       + 459.8 y_11,6_#192 + 295.5 y_11,7_#193 + 238 y_11,8_#194
       + 153.8 y_11,9_#195 + 24.9 y_11,10_#196 + 13 y_11,12_#197
       + 54.1 y_11,13_#198 + 113 y_11,14_#199 + 178 y_11,15_#200
       + 198.1 y_11,16_#201 + 123.4 y_11,17_#202 + 2162.9 y_11,18_#203
       + 177.3 y_12,1_#204 + 65.8 y_12,2_#205 + 217.2 y_12,3_#206
       + 322.7 y_12,4_#207 + 309.9 y_12,5_#208 + 450.3 y_12,6_#209
       + 275.5 y_12,7_#210 + 218 y_12,8_#211 + 157.8 y_12,9_#212
       + 44.4 y_12,10_#213 + 13 y_12,11_#214 + 12 y_12,13_#215
       + 34.4 y_12,14_#216 + 103.3 y_12,15_#217 + 123.4 y_12,16_#218
       + 156.1 y_12,17_#219 + 2158.5 y_12,18_#220 + 244.7 y_13,1_#221
       + 138.7 y_13,2_#222 + 290.4 y_13,3_#223 + 296.9 y_13,4_#224
       + 284.1 y_13,5_#225 + 432.2 y_13,6_#226 + 249.7 y_13,7_#227
       + 192.2 y_13,8_#228 + 132.2 y_13,9_#229 + 18.8 y_13,10_#230
       + 68.9 y_13,11_#231 + 12 y_13,12_#232 + 39.5 y_13,14_#233
       + 80.3 y_13,15_#234 + 99.6 y_13,16_#235 + 227.1 y_13,17_#236
       + 2231.4 y_13,18_#237 + 210.3 y_14,1_#238 + 104.3 y_14,2_#239
       + 218.6 y_14,3_#240 + 263.2 y_14,4_#241 + 250.4 y_14,5_#242
       + 398.5 y_14,6_#243 + 216 y_14,7_#244 + 158.5 y_14,8_#245
       + 130.7 y_14,9_#246 + 62.9 y_14,10_#247 + 103.3 y_14,11_#248
       + 38.4 y_14,12_#249 + 29 y_14,13_#250 + 46.6 y_14,15_#251
       + 65.9 y_14,16_#252 + 216.3 y_14,17_#253 + 2197 y_14,18_#254
       + 235.8 y_15,1_#255 + 50.3 y_15,2_#256 + 171.9 y_15,3_#257
       + 233.7 y_15,4_#258 + 220.9 y_15,5_#259 + 369 y_15,6_#260
       + 186.5 y_15,7_#261 + 129 y_15,8_#262 + 101.2 y_15,9_#263
       + 126.7 y_15,10_#264 + 159.7 y_15,11_#265 + 94.8 y_15,12_#266
       + 79 y_15,13_#267 + 47 y_15,14_#268 + 19.2 y_15,16_#269
       + 190.5 y_15,17_#270 + 2171.2 y_15,18_#271 + 230.6 y_16,1_#272
       + 48.7 y_16,2_#273 + 150 y_16,3_#274 + 337 y_16,4_#275
       + 258.1 y_16,5_#276 + 398 y_16,6_#277 + 223.7 y_16,7_#278
       + 166.2 y_16,8_#279 + 138.4 y_16,9_#280 + 163.9 y_16,10_#281
       + 181.4 y_16,11_#282 + 131.3 y_16,12_#283 + 116.2 y_16,13_#284
       + 84.2 y_16,14_#285 + 18.6 y_16,15_#286 + 208.5 y_16,17_#287
       + 2189.2 y_16,18_#288 + 151.2 y_17,1_#289 + 89.5 y_17,2_#290
       + 285.9 y_17,3_#291 + 356.4 y_17,4_#292 + 343.6 y_17,5_#293
       + 476 y_17,6_#294 + 326.3 y_17,7_#295 + 240.3 y_17,8_#296
       + 184.6 y_17,9_#297 + 147.9 y_17,10_#298 + 122.3 y_17,11_#299
       + 145.5 y_17,12_#300 + 209.6 y_17,13_#301 + 194.7 y_17,14_#302
       + 172 y_17,15_#303 + 192.1 y_17,16_#304 + 2086.4 y_17,18_#305
       + 0 w_0#306 + 0 w_1#307 + 0 w_2#308 + 0 w_3#309 + 0 w_4#310 + 0 w_5#311
       + 0 w_6#312 + 0 w_7#313 + 0 w_8#314 + 0 w_9#315 + 0 w_10#316
       + 0 w_11#317 + 0 w_12#318 + 0 w_13#319 + 0 w_14#320 + 0 w_15#321
       + 0 w_16#322 + 0 w_17#323 + 0 w_18#324 + 0 _e_0#325 + 0 _e_1#326
       + 0 _e_2#327 + 0 _e_3#328 + 0 _e_4#329 + 0 _e_5#330 + 0 _e_6#331
       + 0 _e_7#332 + 0 _e_8#333 + 0 _e_9#334 + 0 _e_10#335 + 0 _e_11#336
       + 0 _e_12#337 + 0 _e_13#338 + 0 _e_14#339 + 0 _e_15#340 + 0 _e_16#341
       + 0 _e_17#342 + 0 t_0#343 + 0 t_1#344 + 0 t_2#345 + 0 t_3#346
       + 0 t_4#347 + 0 t_5#348 + 0 t_6#349 + 0 t_7#350 + 0 t_8#351 + 0 t_9#352
       + 0 t_10#353 + 0 t_11#354 + 0 t_12#355 + 0 t_13#356 + 0 t_14#357
       + 0 t_15#358 + 0 t_16#359 + 0 t_17#360
Subject To
 c1:  y_0,1_#0 + y_0,2_#1 + y_0,3_#2 + y_0,4_#3 + y_0,5_#4 + y_0,6_#5
      + y_0,7_#6 + y_0,8_#7 + y_0,9_#8 + y_0,10_#9 + y_0,11_#10 + y_0,12_#11
      + y_0,13_#12 + y_0,14_#13 + y_0,15_#14 + y_0,16_#15 + y_0,17_#16  = 1
 c2:  y_1,2_#17 + y_1,3_#18 + y_1,4_#19 + y_1,5_#20 + y_1,6_#21 + y_1,7_#22
      + y_1,8_#23 + y_1,9_#24 + y_1,10_#25 + y_1,11_#26 + y_1,12_#27
      + y_1,13_#28 + y_1,14_#29 + y_1,15_#30 + y_1,16_#31 + y_1,17_#32
      + y_1,18_#33  = 1
 c3:  y_2,1_#34 + y_2,3_#35 + y_2,4_#36 + y_2,5_#37 + y_2,6_#38 + y_2,7_#39
      + y_2,8_#40 + y_2,9_#41 + y_2,10_#42 + y_2,11_#43 + y_2,12_#44
      + y_2,13_#45 + y_2,14_#46 + y_2,15_#47 + y_2,16_#48 + y_2,17_#49
      + y_2,18_#50  = 1
 c4:  y_3,1_#51 + y_3,2_#52 + y_3,4_#53 + y_3,5_#54 + y_3,6_#55 + y_3,7_#56
      + y_3,8_#57 + y_3,9_#58 + y_3,10_#59 + y_3,11_#60 + y_3,12_#61
      + y_3,13_#62 + y_3,14_#63 + y_3,15_#64 + y_3,16_#65 + y_3,17_#66
      + y_3,18_#67  = 1
 c5:  y_4,1_#68 + y_4,2_#69 + y_4,3_#70 + y_4,5_#71 + y_4,6_#72 + y_4,7_#73
      + y_4,8_#74 + y_4,9_#75 + y_4,10_#76 + y_4,11_#77 + y_4,12_#78
      + y_4,13_#79 + y_4,14_#80 + y_4,15_#81 + y_4,16_#82 + y_4,17_#83
      + y_4,18_#84  = 1
 c6:  y_5,1_#85 + y_5,2_#86 + y_5,3_#87 + y_5,4_#88 + y_5,6_#89 + y_5,7_#90
      + y_5,8_#91 + y_5,9_#92 + y_5,10_#93 + y_5,11_#94 + y_5,12_#95
      + y_5,13_#96 + y_5,14_#97 + y_5,15_#98 + y_5,16_#99 + y_5,17_#100
      + y_5,18_#101  = 1
 c7:  y_6,1_#102 + y_6,2_#103 + y_6,3_#104 + y_6,4_#105 + y_6,5_#106
      + y_6,7_#107 + y_6,8_#108 + y_6,9_#109 + y_6,10_#110 + y_6,11_#111
      + y_6,12_#112 + y_6,13_#113 + y_6,14_#114 + y_6,15_#115 + y_6,16_#116
      + y_6,17_#117 + y_6,18_#118  = 1
 c8:  y_7,1_#119 + y_7,2_#120 + y_7,3_#121 + y_7,4_#122 + y_7,5_#123
      + y_7,6_#124 + y_7,8_#125 + y_7,9_#126 + y_7,10_#127 + y_7,11_#128
      + y_7,12_#129 + y_7,13_#130 + y_7,14_#131 + y_7,15_#132 + y_7,16_#133
      + y_7,17_#134 + y_7,18_#135  = 1
 c9:  y_8,1_#136 + y_8,2_#137 + y_8,3_#138 + y_8,4_#139 + y_8,5_#140
      + y_8,6_#141 + y_8,7_#142 + y_8,9_#143 + y_8,10_#144 + y_8,11_#145
      + y_8,12_#146 + y_8,13_#147 + y_8,14_#148 + y_8,15_#149 + y_8,16_#150
      + y_8,17_#151 + y_8,18_#152  = 1
 c10: y_9,1_#153 + y_9,2_#154 + y_9,3_#155 + y_9,4_#156 + y_9,5_#157
      + y_9,6_#158 + y_9,7_#159 + y_9,8_#160 + y_9,10_#161 + y_9,11_#162
      + y_9,12_#163 + y_9,13_#164 + y_9,14_#165 + y_9,15_#166 + y_9,16_#167
      + y_9,17_#168 + y_9,18_#169  = 1
 c11: y_10,1_#170 + y_10,2_#171 + y_10,3_#172 + y_10,4_#173 + y_10,5_#174
      + y_10,6_#175 + y_10,7_#176 + y_10,8_#177 + y_10,9_#178 + y_10,11_#179
      + y_10,12_#180 + y_10,13_#181 + y_10,14_#182 + y_10,15_#183
      + y_10,16_#184 + y_10,17_#185 + y_10,18_#186  = 1
 c12: y_11,1_#187 + y_11,2_#188 + y_11,3_#189 + y_11,4_#190 + y_11,5_#191
      + y_11,6_#192 + y_11,7_#193 + y_11,8_#194 + y_11,9_#195 + y_11,10_#196
      + y_11,12_#197 + y_11,13_#198 + y_11,14_#199 + y_11,15_#200
      + y_11,16_#201 + y_11,17_#202 + y_11,18_#203  = 1
 c13: y_12,1_#204 + y_12,2_#205 + y_12,3_#206 + y_12,4_#207 + y_12,5_#208
      + y_12,6_#209 + y_12,7_#210 + y_12,8_#211 + y_12,9_#212 + y_12,10_#213
      + y_12,11_#214 + y_12,13_#215 + y_12,14_#216 + y_12,15_#217
      + y_12,16_#218 + y_12,17_#219 + y_12,18_#220  = 1
 c14: y_13,1_#221 + y_13,2_#222 + y_13,3_#223 + y_13,4_#224 + y_13,5_#225
      + y_13,6_#226 + y_13,7_#227 + y_13,8_#228 + y_13,9_#229 + y_13,10_#230
      + y_13,11_#231 + y_13,12_#232 + y_13,14_#233 + y_13,15_#234
      + y_13,16_#235 + y_13,17_#236 + y_13,18_#237  = 1
 c15: y_14,1_#238 + y_14,2_#239 + y_14,3_#240 + y_14,4_#241 + y_14,5_#242
      + y_14,6_#243 + y_14,7_#244 + y_14,8_#245 + y_14,9_#246 + y_14,10_#247
      + y_14,11_#248 + y_14,12_#249 + y_14,13_#250 + y_14,15_#251
      + y_14,16_#252 + y_14,17_#253 + y_14,18_#254  = 1
 c16: y_15,1_#255 + y_15,2_#256 + y_15,3_#257 + y_15,4_#258 + y_15,5_#259
      + y_15,6_#260 + y_15,7_#261 + y_15,8_#262 + y_15,9_#263 + y_15,10_#264
      + y_15,11_#265 + y_15,12_#266 + y_15,13_#267 + y_15,14_#268
      + y_15,16_#269 + y_15,17_#270 + y_15,18_#271  = 1
 c17: y_16,1_#272 + y_16,2_#273 + y_16,3_#274 + y_16,4_#275 + y_16,5_#276
      + y_16,6_#277 + y_16,7_#278 + y_16,8_#279 + y_16,9_#280 + y_16,10_#281
      + y_16,11_#282 + y_16,12_#283 + y_16,13_#284 + y_16,14_#285
      + y_16,15_#286 + y_16,17_#287 + y_16,18_#288  = 1
 c18: y_17,1_#289 + y_17,2_#290 + y_17,3_#291 + y_17,4_#292 + y_17,5_#293
      + y_17,6_#294 + y_17,7_#295 + y_17,8_#296 + y_17,9_#297 + y_17,10_#298
      + y_17,11_#299 + y_17,12_#300 + y_17,13_#301 + y_17,14_#302
      + y_17,15_#303 + y_17,16_#304 + y_17,18_#305  = 1
 c19: y_0,1_#0 + y_2,1_#34 + y_3,1_#51 + y_4,1_#68 + y_5,1_#85 + y_6,1_#102
      + y_7,1_#119 + y_8,1_#136 + y_9,1_#153 + y_10,1_#170 + y_11,1_#187
      + y_12,1_#204 + y_13,1_#221 + y_14,1_#238 + y_15,1_#255 + y_16,1_#272
      + y_17,1_#289  = 1
 c20: y_0,2_#1 + y_1,2_#17 + y_3,2_#52 + y_4,2_#69 + y_5,2_#86 + y_6,2_#103
      + y_7,2_#120 + y_8,2_#137 + y_9,2_#154 + y_10,2_#171 + y_11,2_#188
      + y_12,2_#205 + y_13,2_#222 + y_14,2_#239 + y_15,2_#256 + y_16,2_#273
      + y_17,2_#290  = 1
 c21: y_0,3_#2 + y_1,3_#18 + y_2,3_#35 + y_4,3_#70 + y_5,3_#87 + y_6,3_#104
      + y_7,3_#121 + y_8,3_#138 + y_9,3_#155 + y_10,3_#172 + y_11,3_#189
      + y_12,3_#206 + y_13,3_#223 + y_14,3_#240 + y_15,3_#257 + y_16,3_#274
      + y_17,3_#291  = 1
 c22: y_0,4_#3 + y_1,4_#19 + y_2,4_#36 + y_3,4_#53 + y_5,4_#88 + y_6,4_#105
      + y_7,4_#122 + y_8,4_#139 + y_9,4_#156 + y_10,4_#173 + y_11,4_#190
      + y_12,4_#207 + y_13,4_#224 + y_14,4_#241 + y_15,4_#258 + y_16,4_#275
      + y_17,4_#292  = 1
 c23: y_0,5_#4 + y_1,5_#20 + y_2,5_#37 + y_3,5_#54 + y_4,5_#71 + y_6,5_#106
      + y_7,5_#123 + y_8,5_#140 + y_9,5_#157 + y_10,5_#174 + y_11,5_#191
      + y_12,5_#208 + y_13,5_#225 + y_14,5_#242 + y_15,5_#259 + y_16,5_#276
      + y_17,5_#293  = 1
 c24: y_0,6_#5 + y_1,6_#21 + y_2,6_#38 + y_3,6_#55 + y_4,6_#72 + y_5,6_#89
      + y_7,6_#124 + y_8,6_#141 + y_9,6_#158 + y_10,6_#175 + y_11,6_#192
      + y_12,6_#209 + y_13,6_#226 + y_14,6_#243 + y_15,6_#260 + y_16,6_#277
      + y_17,6_#294  = 1
 c25: y_0,7_#6 + y_1,7_#22 + y_2,7_#39 + y_3,7_#56 + y_4,7_#73 + y_5,7_#90
      + y_6,7_#107 + y_8,7_#142 + y_9,7_#159 + y_10,7_#176 + y_11,7_#193
      + y_12,7_#210 + y_13,7_#227 + y_14,7_#244 + y_15,7_#261 + y_16,7_#278
      + y_17,7_#295  = 1
 c26: y_0,8_#7 + y_1,8_#23 + y_2,8_#40 + y_3,8_#57 + y_4,8_#74 + y_5,8_#91
      + y_6,8_#108 + y_7,8_#125 + y_9,8_#160 + y_10,8_#177 + y_11,8_#194
      + y_12,8_#211 + y_13,8_#228 + y_14,8_#245 + y_15,8_#262 + y_16,8_#279
      + y_17,8_#296  = 1
 c27: y_0,9_#8 + y_1,9_#24 + y_2,9_#41 + y_3,9_#58 + y_4,9_#75 + y_5,9_#92
      + y_6,9_#109 + y_7,9_#126 + y_8,9_#143 + y_10,9_#178 + y_11,9_#195
      + y_12,9_#212 + y_13,9_#229 + y_14,9_#246 + y_15,9_#263 + y_16,9_#280
      + y_17,9_#297  = 1
 c28: y_0,10_#9 + y_1,10_#25 + y_2,10_#42 + y_3,10_#59 + y_4,10_#76
      + y_5,10_#93 + y_6,10_#110 + y_7,10_#127 + y_8,10_#144 + y_9,10_#161
      + y_11,10_#196 + y_12,10_#213 + y_13,10_#230 + y_14,10_#247
      + y_15,10_#264 + y_16,10_#281 + y_17,10_#298  = 1
 c29: y_0,11_#10 + y_1,11_#26 + y_2,11_#43 + y_3,11_#60 + y_4,11_#77
      + y_5,11_#94 + y_6,11_#111 + y_7,11_#128 + y_8,11_#145 + y_9,11_#162
      + y_10,11_#179 + y_12,11_#214 + y_13,11_#231 + y_14,11_#248
      + y_15,11_#265 + y_16,11_#282 + y_17,11_#299  = 1
 c30: y_0,12_#11 + y_1,12_#27 + y_2,12_#44 + y_3,12_#61 + y_4,12_#78
      + y_5,12_#95 + y_6,12_#112 + y_7,12_#129 + y_8,12_#146 + y_9,12_#163
      + y_10,12_#180 + y_11,12_#197 + y_13,12_#232 + y_14,12_#249
      + y_15,12_#266 + y_16,12_#283 + y_17,12_#300  = 1
 c31: y_0,13_#12 + y_1,13_#28 + y_2,13_#45 + y_3,13_#62 + y_4,13_#79
      + y_5,13_#96 + y_6,13_#113 + y_7,13_#130 + y_8,13_#147 + y_9,13_#164
      + y_10,13_#181 + y_11,13_#198 + y_12,13_#215 + y_14,13_#250
      + y_15,13_#267 + y_16,13_#284 + y_17,13_#301  = 1
 c32: y_0,14_#13 + y_1,14_#29 + y_2,14_#46 + y_3,14_#63 + y_4,14_#80
      + y_5,14_#97 + y_6,14_#114 + y_7,14_#131 + y_8,14_#148 + y_9,14_#165
      + y_10,14_#182 + y_11,14_#199 + y_12,14_#216 + y_13,14_#233
      + y_15,14_#268 + y_16,14_#285 + y_17,14_#302  = 1
 c33: y_0,15_#14 + y_1,15_#30 + y_2,15_#47 + y_3,15_#64 + y_4,15_#81
      + y_5,15_#98 + y_6,15_#115 + y_7,15_#132 + y_8,15_#149 + y_9,15_#166
      + y_10,15_#183 + y_11,15_#200 + y_12,15_#217 + y_13,15_#234
      + y_14,15_#251 + y_16,15_#286 + y_17,15_#303  = 1
 c34: y_0,16_#15 + y_1,16_#31 + y_2,16_#48 + y_3,16_#65 + y_4,16_#82
      + y_5,16_#99 + y_6,16_#116 + y_7,16_#133 + y_8,16_#150 + y_9,16_#167
      + y_10,16_#184 + y_11,16_#201 + y_12,16_#218 + y_13,16_#235
      + y_14,16_#252 + y_15,16_#269 + y_17,16_#304  = 1
 c35: y_0,17_#16 + y_1,17_#32 + y_2,17_#49 + y_3,17_#66 + y_4,17_#83
      + y_5,17_#100 + y_6,17_#117 + y_7,17_#134 + y_8,17_#151 + y_9,17_#168
      + y_10,17_#185 + y_11,17_#202 + y_12,17_#219 + y_13,17_#236
      + y_14,17_#253 + y_15,17_#270 + y_16,17_#287  = 1
 c36: y_1,18_#33 + y_2,18_#50 + y_3,18_#67 + y_4,18_#84 + y_5,18_#101
      + y_6,18_#118 + y_7,18_#135 + y_8,18_#152 + y_9,18_#169 + y_10,18_#186
      + y_11,18_#203 + y_12,18_#220 + y_13,18_#237 + y_14,18_#254
      + y_15,18_#271 + y_16,18_#288 + y_17,18_#305  = 1
 c37: y_0,1_#0  = 1
Bounds
 0 <= y_0,1_#0 <= 1
 0 <= y_0,2_#1 <= 1
 0 <= y_0,3_#2 <= 1
 0 <= y_0,4_#3 <= 1
 0 <= y_0,5_#4 <= 1
 0 <= y_0,6_#5 <= 1
 0 <= y_0,7_#6 <= 1
 0 <= y_0,8_#7 <= 1
 0 <= y_0,9_#8 <= 1
 0 <= y_0,10_#9 <= 1
 0 <= y_0,11_#10 <= 1
 0 <= y_0,12_#11 <= 1
 0 <= y_0,13_#12 <= 1
 0 <= y_0,14_#13 <= 1
 0 <= y_0,15_#14 <= 1
 0 <= y_0,16_#15 <= 1
 0 <= y_0,17_#16 <= 1
 0 <= y_1,2_#17 <= 1
 0 <= y_1,3_#18 <= 1
 0 <= y_1,4_#19 <= 1
 0 <= y_1,5_#20 <= 1
 0 <= y_1,6_#21 <= 1
 0 <= y_1,7_#22 <= 1
 0 <= y_1,8_#23 <= 1
 0 <= y_1,9_#24 <= 1
 0 <= y_1,10_#25 <= 1
 0 <= y_1,11_#26 <= 1
 0 <= y_1,12_#27 <= 1
 0 <= y_1,13_#28 <= 1
 0 <= y_1,14_#29 <= 1
 0 <= y_1,15_#30 <= 1
 0 <= y_1,16_#31 <= 1
 0 <= y_1,17_#32 <= 1
 0 <= y_1,18_#33 <= 1
 0 <= y_2,1_#34 <= 1
 0 <= y_2,3_#35 <= 1
 0 <= y_2,4_#36 <= 1
 0 <= y_2,5_#37 <= 1
 0 <= y_2,6_#38 <= 1
 0 <= y_2,7_#39 <= 1
 0 <= y_2,8_#40 <= 1
 0 <= y_2,9_#41 <= 1
 0 <= y_2,10_#42 <= 1
 0 <= y_2,11_#43 <= 1
 0 <= y_2,12_#44 <= 1
 0 <= y_2,13_#45 <= 1
 0 <= y_2,14_#46 <= 1
 0 <= y_2,15_#47 <= 1
 0 <= y_2,16_#48 <= 1
 0 <= y_2,17_#49 <= 1
 0 <= y_2,18_#50 <= 1
 0 <= y_3,1_#51 <= 1
 0 <= y_3,2_#52 <= 1
 0 <= y_3,4_#53 <= 1
 0 <= y_3,5_#54 <= 1
 0 <= y_3,6_#55 <= 1
 0 <= y_3,7_#56 <= 1
 0 <= y_3,8_#57 <= 1
 0 <= y_3,9_#58 <= 1
 0 <= y_3,10_#59 <= 1
 0 <= y_3,11_#60 <= 1
 0 <= y_3,12_#61 <= 1
 0 <= y_3,13_#62 <= 1
 0 <= y_3,14_#63 <= 1
 0 <= y_3,15_#64 <= 1
 0 <= y_3,16_#65 <= 1
 0 <= y_3,17_#66 <= 1
 0 <= y_3,18_#67 <= 1
 0 <= y_4,1_#68 <= 1
 0 <= y_4,2_#69 <= 1
 0 <= y_4,3_#70 <= 1
 0 <= y_4,5_#71 <= 1
 0 <= y_4,6_#72 <= 1
 0 <= y_4,7_#73 <= 1
 0 <= y_4,8_#74 <= 1
 0 <= y_4,9_#75 <= 1
 0 <= y_4,10_#76 <= 1
 0 <= y_4,11_#77 <= 1
 0 <= y_4,12_#78 <= 1
 0 <= y_4,13_#79 <= 1
 0 <= y_4,14_#80 <= 1
 0 <= y_4,15_#81 <= 1
 0 <= y_4,16_#82 <= 1
 0 <= y_4,17_#83 <= 1
 0 <= y_4,18_#84 <= 1
 0 <= y_5,1_#85 <= 1
 0 <= y_5,2_#86 <= 1
 0 <= y_5,3_#87 <= 1
 0 <= y_5,4_#88 <= 1
 0 <= y_5,6_#89 <= 1
 0 <= y_5,7_#90 <= 1
 0 <= y_5,8_#91 <= 1
 0 <= y_5,9_#92 <= 1
 0 <= y_5,10_#93 <= 1
 0 <= y_5,11_#94 <= 1
 0 <= y_5,12_#95 <= 1
 0 <= y_5,13_#96 <= 1
 0 <= y_5,14_#97 <= 1
 0 <= y_5,15_#98 <= 1
 0 <= y_5,16_#99 <= 1
 0 <= y_5,17_#100 <= 1
 0 <= y_5,18_#101 <= 1
 0 <= y_6,1_#102 <= 1
 0 <= y_6,2_#103 <= 1
 0 <= y_6,3_#104 <= 1
 0 <= y_6,4_#105 <= 1
 0 <= y_6,5_#106 <= 1
 0 <= y_6,7_#107 <= 1
 0 <= y_6,8_#108 <= 1
 0 <= y_6,9_#109 <= 1
 0 <= y_6,10_#110 <= 1
 0 <= y_6,11_#111 <= 1
 0 <= y_6,12_#112 <= 1
 0 <= y_6,13_#113 <= 1
 0 <= y_6,14_#114 <= 1
 0 <= y_6,15_#115 <= 1
 0 <= y_6,16_#116 <= 1
 0 <= y_6,17_#117 <= 1
 0 <= y_6,18_#118 <= 1
 0 <= y_7,1_#119 <= 1
 0 <= y_7,2_#120 <= 1
 0 <= y_7,3_#121 <= 1
 0 <= y_7,4_#122 <= 1
 0 <= y_7,5_#123 <= 1
 0 <= y_7,6_#124 <= 1
 0 <= y_7,8_#125 <= 1
 0 <= y_7,9_#126 <= 1
 0 <= y_7,10_#127 <= 1
 0 <= y_7,11_#128 <= 1
 0 <= y_7,12_#129 <= 1
 0 <= y_7,13_#130 <= 1
 0 <= y_7,14_#131 <= 1
 0 <= y_7,15_#132 <= 1
 0 <= y_7,16_#133 <= 1
 0 <= y_7,17_#134 <= 1
 0 <= y_7,18_#135 <= 1
 0 <= y_8,1_#136 <= 1
 0 <= y_8,2_#137 <= 1
 0 <= y_8,3_#138 <= 1
 0 <= y_8,4_#139 <= 1
 0 <= y_8,5_#140 <= 1
 0 <= y_8,6_#141 <= 1
 0 <= y_8,7_#142 <= 1
 0 <= y_8,9_#143 <= 1
 0 <= y_8,10_#144 <= 1
 0 <= y_8,11_#145 <= 1
 0 <= y_8,12_#146 <= 1
 0 <= y_8,13_#147 <= 1
 0 <= y_8,14_#148 <= 1
 0 <= y_8,15_#149 <= 1
 0 <= y_8,16_#150 <= 1
 0 <= y_8,17_#151 <= 1
 0 <= y_8,18_#152 <= 1
 0 <= y_9,1_#153 <= 1
 0 <= y_9,2_#154 <= 1
 0 <= y_9,3_#155 <= 1
 0 <= y_9,4_#156 <= 1
 0 <= y_9,5_#157 <= 1
 0 <= y_9,6_#158 <= 1
 0 <= y_9,7_#159 <= 1
 0 <= y_9,8_#160 <= 1
 0 <= y_9,10_#161 <= 1
 0 <= y_9,11_#162 <= 1
 0 <= y_9,12_#163 <= 1
 0 <= y_9,13_#164 <= 1
 0 <= y_9,14_#165 <= 1
 0 <= y_9,15_#166 <= 1
 0 <= y_9,16_#167 <= 1
 0 <= y_9,17_#168 <= 1
 0 <= y_9,18_#169 <= 1
 0 <= y_10,1_#170 <= 1
 0 <= y_10,2_#171 <= 1
 0 <= y_10,3_#172 <= 1
 0 <= y_10,4_#173 <= 1
 0 <= y_10,5_#174 <= 1
 0 <= y_10,6_#175 <= 1
 0 <= y_10,7_#176 <= 1
 0 <= y_10,8_#177 <= 1
 0 <= y_10,9_#178 <= 1
 0 <= y_10,11_#179 <= 1
 0 <= y_10,12_#180 <= 1
 0 <= y_10,13_#181 <= 1
 0 <= y_10,14_#182 <= 1
 0 <= y_10,15_#183 <= 1
 0 <= y_10,16_#184 <= 1
 0 <= y_10,17_#185 <= 1
 0 <= y_10,18_#186 <= 1
 0 <= y_11,1_#187 <= 1
 0 <= y_11,2_#188 <= 1
 0 <= y_11,3_#189 <= 1
 0 <= y_11,4_#190 <= 1
 0 <= y_11,5_#191 <= 1
 0 <= y_11,6_#192 <= 1
 0 <= y_11,7_#193 <= 1
 0 <= y_11,8_#194 <= 1
 0 <= y_11,9_#195 <= 1
 0 <= y_11,10_#196 <= 1
 0 <= y_11,12_#197 <= 1
 0 <= y_11,13_#198 <= 1
 0 <= y_11,14_#199 <= 1
 0 <= y_11,15_#200 <= 1
 0 <= y_11,16_#201 <= 1
 0 <= y_11,17_#202 <= 1
 0 <= y_11,18_#203 <= 1
 0 <= y_12,1_#204 <= 1
 0 <= y_12,2_#205 <= 1
 0 <= y_12,3_#206 <= 1
 0 <= y_12,4_#207 <= 1
 0 <= y_12,5_#208 <= 1
 0 <= y_12,6_#209 <= 1
 0 <= y_12,7_#210 <= 1
 0 <= y_12,8_#211 <= 1
 0 <= y_12,9_#212 <= 1
 0 <= y_12,10_#213 <= 1
 0 <= y_12,11_#214 <= 1
 0 <= y_12,13_#215 <= 1
 0 <= y_12,14_#216 <= 1
 0 <= y_12,15_#217 <= 1
 0 <= y_12,16_#218 <= 1
 0 <= y_12,17_#219 <= 1
 0 <= y_12,18_#220 <= 1
 0 <= y_13,1_#221 <= 1
 0 <= y_13,2_#222 <= 1
 0 <= y_13,3_#223 <= 1
 0 <= y_13,4_#224 <= 1
 0 <= y_13,5_#225 <= 1
 0 <= y_13,6_#226 <= 1
 0 <= y_13,7_#227 <= 1
 0 <= y_13,8_#228 <= 1
 0 <= y_13,9_#229 <= 1
 0 <= y_13,10_#230 <= 1
 0 <= y_13,11_#231 <= 1
 0 <= y_13,12_#232 <= 1
 0 <= y_13,14_#233 <= 1
 0 <= y_13,15_#234 <= 1
 0 <= y_13,16_#235 <= 1
 0 <= y_13,17_#236 <= 1
 0 <= y_13,18_#237 <= 1
 0 <= y_14,1_#238 <= 1
 0 <= y_14,2_#239 <= 1
 0 <= y_14,3_#240 <= 1
 0 <= y_14,4_#241 <= 1
 0 <= y_14,5_#242 <= 1
 0 <= y_14,6_#243 <= 1
 0 <= y_14,7_#244 <= 1
 0 <= y_14,8_#245 <= 1
 0 <= y_14,9_#246 <= 1
 0 <= y_14,10_#247 <= 1
 0 <= y_14,11_#248 <= 1
 0 <= y_14,12_#249 <= 1
 0 <= y_14,13_#250 <= 1
 0 <= y_14,15_#251 <= 1
 0 <= y_14,16_#252 <= 1
 0 <= y_14,17_#253 <= 1
 0 <= y_14,18_#254 <= 1
 0 <= y_15,1_#255 <= 1
 0 <= y_15,2_#256 <= 1
 0 <= y_15,3_#257 <= 1
 0 <= y_15,4_#258 <= 1
 0 <= y_15,5_#259 <= 1
 0 <= y_15,6_#260 <= 1
 0 <= y_15,7_#261 <= 1
 0 <= y_15,8_#262 <= 1
 0 <= y_15,9_#263 <= 1
 0 <= y_15,10_#264 <= 1
 0 <= y_15,11_#265 <= 1
 0 <= y_15,12_#266 <= 1
 0 <= y_15,13_#267 <= 1
 0 <= y_15,14_#268 <= 1
 0 <= y_15,16_#269 <= 1
 0 <= y_15,17_#270 <= 1
 0 <= y_15,18_#271 <= 1
 0 <= y_16,1_#272 <= 1
 0 <= y_16,2_#273 <= 1
 0 <= y_16,3_#274 <= 1
 0 <= y_16,4_#275 <= 1
 0 <= y_16,5_#276 <= 1
 0 <= y_16,6_#277 <= 1
 0 <= y_16,7_#278 <= 1
 0 <= y_16,8_#279 <= 1
 0 <= y_16,9_#280 <= 1
 0 <= y_16,10_#281 <= 1
 0 <= y_16,11_#282 <= 1
 0 <= y_16,12_#283 <= 1
 0 <= y_16,13_#284 <= 1
 0 <= y_16,14_#285 <= 1
 0 <= y_16,15_#286 <= 1
 0 <= y_16,17_#287 <= 1
 0 <= y_16,18_#288 <= 1
 0 <= y_17,1_#289 <= 1
 0 <= y_17,2_#290 <= 1
 0 <= y_17,3_#291 <= 1
 0 <= y_17,4_#292 <= 1
 0 <= y_17,5_#293 <= 1
 0 <= y_17,6_#294 <= 1
 0 <= y_17,7_#295 <= 1
 0 <= y_17,8_#296 <= 1
 0 <= y_17,9_#297 <= 1
 0 <= y_17,10_#298 <= 1
 0 <= y_17,11_#299 <= 1
 0 <= y_17,12_#300 <= 1
 0 <= y_17,13_#301 <= 1
 0 <= y_17,14_#302 <= 1
 0 <= y_17,15_#303 <= 1
 0 <= y_17,16_#304 <= 1
 0 <= y_17,18_#305 <= 1
Binaries
 y_0,1_#0  y_0,2_#1  y_0,3_#2  y_0,4_#3  y_0,5_#4  y_0,6_#5  y_0,7_#6 
 y_0,8_#7  y_0,9_#8  y_0,10_#9  y_0,11_#10  y_0,12_#11  y_0,13_#12  y_0,14_#13 
 y_0,15_#14  y_0,16_#15  y_0,17_#16  y_1,2_#17  y_1,3_#18  y_1,4_#19 
 y_1,5_#20  y_1,6_#21  y_1,7_#22  y_1,8_#23  y_1,9_#24  y_1,10_#25  y_1,11_#26 
 y_1,12_#27  y_1,13_#28  y_1,14_#29  y_1,15_#30  y_1,16_#31  y_1,17_#32 
 y_1,18_#33  y_2,1_#34  y_2,3_#35  y_2,4_#36  y_2,5_#37  y_2,6_#38  y_2,7_#39 
 y_2,8_#40  y_2,9_#41  y_2,10_#42  y_2,11_#43  y_2,12_#44  y_2,13_#45 
 y_2,14_#46  y_2,15_#47  y_2,16_#48  y_2,17_#49  y_2,18_#50  y_3,1_#51 
 y_3,2_#52  y_3,4_#53  y_3,5_#54  y_3,6_#55  y_3,7_#56  y_3,8_#57  y_3,9_#58 
 y_3,10_#59  y_3,11_#60  y_3,12_#61  y_3,13_#62  y_3,14_#63  y_3,15_#64 
 y_3,16_#65  y_3,17_#66  y_3,18_#67  y_4,1_#68  y_4,2_#69  y_4,3_#70 
 y_4,5_#71  y_4,6_#72  y_4,7_#73  y_4,8_#74  y_4,9_#75  y_4,10_#76  y_4,11_#77 
 y_4,12_#78  y_4,13_#79  y_4,14_#80  y_4,15_#81  y_4,16_#82  y_4,17_#83 
 y_4,18_#84  y_5,1_#85  y_5,2_#86  y_5,3_#87  y_5,4_#88  y_5,6_#89  y_5,7_#90 
 y_5,8_#91  y_5,9_#92  y_5,10_#93  y_5,11_#94  y_5,12_#95  y_5,13_#96 
 y_5,14_#97  y_5,15_#98  y_5,16_#99  y_5,17_#100  y_5,18_#101  y_6,1_#102 
 y_6,2_#103  y_6,3_#104  y_6,4_#105  y_6,5_#106  y_6,7_#107  y_6,8_#108 
 y_6,9_#109  y_6,10_#110  y_6,11_#111  y_6,12_#112  y_6,13_#113  y_6,14_#114 
 y_6,15_#115  y_6,16_#116  y_6,17_#117  y_6,18_#118  y_7,1_#119  y_7,2_#120 
 y_7,3_#121  y_7,4_#122  y_7,5_#123  y_7,6_#124  y_7,8_#125  y_7,9_#126 
 y_7,10_#127  y_7,11_#128  y_7,12_#129  y_7,13_#130  y_7,14_#131  y_7,15_#132 
 y_7,16_#133  y_7,17_#134  y_7,18_#135  y_8,1_#136  y_8,2_#137  y_8,3_#138 
 y_8,4_#139  y_8,5_#140  y_8,6_#141  y_8,7_#142  y_8,9_#143  y_8,10_#144 
 y_8,11_#145  y_8,12_#146  y_8,13_#147  y_8,14_#148  y_8,15_#149  y_8,16_#150 
 y_8,17_#151  y_8,18_#152  y_9,1_#153  y_9,2_#154  y_9,3_#155  y_9,4_#156 
 y_9,5_#157  y_9,6_#158  y_9,7_#159  y_9,8_#160  y_9,10_#161  y_9,11_#162 
 y_9,12_#163  y_9,13_#164  y_9,14_#165  y_9,15_#166  y_9,16_#167  y_9,17_#168 
 y_9,18_#169  y_10,1_#170  y_10,2_#171  y_10,3_#172  y_10,4_#173  y_10,5_#174 
 y_10,6_#175  y_10,7_#176  y_10,8_#177  y_10,9_#178  y_10,11_#179 
 y_10,12_#180  y_10,13_#181  y_10,14_#182  y_10,15_#183  y_10,16_#184 
 y_10,17_#185  y_10,18_#186  y_11,1_#187  y_11,2_#188  y_11,3_#189 
 y_11,4_#190  y_11,5_#191  y_11,6_#192  y_11,7_#193  y_11,8_#194  y_11,9_#195 
 y_11,10_#196  y_11,12_#197  y_11,13_#198  y_11,14_#199  y_11,15_#200 
 y_11,16_#201  y_11,17_#202  y_11,18_#203  y_12,1_#204  y_12,2_#205 
 y_12,3_#206  y_12,4_#207  y_12,5_#208  y_12,6_#209  y_12,7_#210  y_12,8_#211 
 y_12,9_#212  y_12,10_#213  y_12,11_#214  y_12,13_#215  y_12,14_#216 
 y_12,15_#217  y_12,16_#218  y_12,17_#219  y_12,18_#220  y_13,1_#221 
 y_13,2_#222  y_13,3_#223  y_13,4_#224  y_13,5_#225  y_13,6_#226  y_13,7_#227 
 y_13,8_#228  y_13,9_#229  y_13,10_#230  y_13,11_#231  y_13,12_#232 
 y_13,14_#233  y_13,15_#234  y_13,16_#235  y_13,17_#236  y_13,18_#237 
 y_14,1_#238  y_14,2_#239  y_14,3_#240  y_14,4_#241  y_14,5_#242  y_14,6_#243 
 y_14,7_#244  y_14,8_#245  y_14,9_#246  y_14,10_#247  y_14,11_#248 
 y_14,12_#249  y_14,13_#250  y_14,15_#251  y_14,16_#252  y_14,17_#253 
 y_14,18_#254  y_15,1_#255  y_15,2_#256  y_15,3_#257  y_15,4_#258  y_15,5_#259 
 y_15,6_#260  y_15,7_#261  y_15,8_#262  y_15,9_#263  y_15,10_#264 
 y_15,11_#265  y_15,12_#266  y_15,13_#267  y_15,14_#268  y_15,16_#269 
 y_15,17_#270  y_15,18_#271  y_16,1_#272  y_16,2_#273  y_16,3_#274 
 y_16,4_#275  y_16,5_#276  y_16,6_#277  y_16,7_#278  y_16,8_#279  y_16,9_#280 
 y_16,10_#281  y_16,11_#282  y_16,12_#283  y_16,13_#284  y_16,14_#285 
 y_16,15_#286  y_16,17_#287  y_16,18_#288  y_17,1_#289  y_17,2_#290 
 y_17,3_#291  y_17,4_#292  y_17,5_#293  y_17,6_#294  y_17,7_#295  y_17,8_#296 
 y_17,9_#297  y_17,10_#298  y_17,11_#299  y_17,12_#300  y_17,13_#301 
 y_17,14_#302  y_17,15_#303  y_17,16_#304  y_17,18_#305 
End
